
%FILE DATA:	Soccer Computational Problem for MiniZinc Models	%
%AUTHOR:	Jack Wall	%
%CONTACT:  	116397063@umail.ucc.ie			%
%LAST UPDATE:	03/09/2020, 15:15:29						%
%DESCRIPTION: 	108 games played with 24 games left				%


n=12; %number of teams

%Games to play
games=[|8,9|7,11|12,5|6,10|12,7|7,10|3,4|11,9|8,7|1,10|1,9|8,3|11,1|4,8|5,7|4,11|11,5|6,11|9,10|6,12|7,3|12,9|5,9|2,8|];

%Initial points
iPoints=[21,26,21,29,12,36,32,24,20,29,19,28];

%POSITION CONSTRAINTS
% [|teamID, operator, position|...]
% operators index:
%  1 for =  operator
%  2 for >  operator
%  3 for >= operator
%  4 for <  operator
%  5 for <= operator
positionConstraints=[|6,5,1|7,5,2|10,3,3|4,2,3|];